1000
[200,201,202,203,206,209,210,211,214,215,218,219,220,222,224,227,228,231,232,233,234,235,239,240,242,243,245,247,248,249,250,252,255,257,259,260,262,264,265,266,269,270,272,274,275,276,277,278,280,281,282,283,288,289,291,292,295,297,299,300,302,303,304,306,307,308,315,316,317,318,319,320,323,324,327,328,330,331,334,335,337,340,341,342,343,347,348,349,353,354,357,359,360,364,365,366,367,368,369,370,374,377,378,379,380,382,383,385,387,388,389,393,394,395,396,397,398,404,405,407,408,410,411,412,413,416,417,418,419,420,421,422,424,425,426,428,431,433,435,436,437,439,441,442,444,446,450,451,452,453,455,458,460,462,463,465,466,467,469,470,471,472,473,475,484,487,488,489,490,492,494,495,496,499,500,501,503,504,508,509,511,512,514,516,518,520,523,525,528,529,532,533,535,537,539,540,542,544,546,549,553,554,556,557,558,559,561,566,568,569,571,573,575,584,586,587,591,593,597,599,602,604,607,608,609,610,611,613,614,616,619,621,623,624,626,627,630,631,635,639,640,641,642,643,644,647,653,654,656,657,658,661,663,665,666,667,668,670,671,674,675,676,683,685,689,690,691,692,693,694,695,696,697,699,700]
[1,1,2,1,2,1,1,1,1,2,1,2,3,2,1,1,1,1,1,2,1,1,1,1,2,1,1,1,1,1,1,1,1,1,1,2,1,2,1,1,1,1,1,3,1,1,1,1,1,4,2,1,1,1,1,1,2,1,2,1,3,1,2,3,1,2,1,1,1,2,2,1,2,1,3,2,2,2,3,1,1,1,1,1,1,1,1,1,1,1,1,1,1,1,2,1,1,1,2,3,1,1,1,2,1,1,2,1,2,1,1,2,1,1,3,2,1,1,1,1,1,1,1,4,2,1,1,1,2,1,3,2,1,1,2,1,1,1,2,1,2,1,1,2,1,1,2,2,1,2,3,2,1,2,1,2,2,2,1,3,1,2,1,2,2,1,1,2,1,2,1,1,2,1,2,1,3,1,2,1,3,2,1,2,2,2,1,1,2,1,2,3,1,2,2,1,1,1,1,1,1,1,1,1,1,2,1,3,1,1,1,1,2,1,1,1,1,2,2,1,1,1,2,1,1,1,1,1,1,3,1,1,1,1,1,2,2,1,4,1,1,1,3,2,1,1,2,2,1,2,1,1,1,1,1,2,2,1,2,1,2,2,1,4,2,1,1,1,3,2,1,1,1,2,1]
